
n_res = 8;
rcap = [56, 63, 59, 52, 741, 796, 716, 812];
rtype = [1, 1, 1, 1, 2, 2, 2, 2];
n_tasks = 50;
modes =  [{1, 2, 3, 4, 5, 6, 7, 8, 9}, {10, 11, 12, 13, 14, 15, 16, 17, 18}, {19, 20, 21, 22, 23, 24, 25, 26, 27}, {28, 29, 30, 31, 32, 33, 34, 35, 36}, {37, 38, 39, 40, 41, 42, 43, 44, 45}, {46, 47, 48, 49, 50, 51, 52, 53, 54}, {55, 56, 57, 58, 59, 60, 61, 62, 63}, {64, 65, 66, 67, 68, 69, 70, 71, 72}, {73, 74, 75, 76, 77, 78, 79, 80, 81}, {82, 83, 84, 85, 86, 87, 88, 89, 90}, {91, 92, 93, 94, 95, 96, 97, 98, 99}, {100, 101, 102, 103, 104, 105, 106, 107, 108}, {109, 110, 111, 112, 113, 114, 115, 116, 117}, {118, 119, 120, 121, 122, 123, 124, 125, 126}, {127, 128, 129, 130, 131, 132, 133, 134, 135}, {136, 137, 138, 139, 140, 141, 142, 143, 144}, {145, 146, 147, 148, 149, 150, 151, 152, 153}, {154, 155, 156, 157, 158, 159, 160, 161, 162}, {163, 164, 165, 166, 167, 168, 169, 170, 171}, {172, 173, 174, 175, 176, 177, 178, 179, 180}, {181, 182, 183, 184, 185, 186, 187, 188, 189}, {190, 191, 192, 193, 194, 195, 196, 197, 198}, {199, 200, 201, 202, 203, 204, 205, 206, 207}, {208, 209, 210, 211, 212, 213, 214, 215, 216}, {217, 218, 219, 220, 221, 222, 223, 224, 225}, {226, 227, 228, 229, 230, 231, 232, 233, 234}, {235, 236, 237, 238, 239, 240, 241, 242, 243}, {244, 245, 246, 247, 248, 249, 250, 251, 252}, {253, 254, 255, 256, 257, 258, 259, 260, 261}, {262, 263, 264, 265, 266, 267, 268, 269, 270}, {271, 272, 273, 274, 275, 276, 277, 278, 279}, {280, 281, 282, 283, 284, 285, 286, 287, 288}, {289, 290, 291, 292, 293, 294, 295, 296, 297}, {298, 299, 300, 301, 302, 303, 304, 305, 306}, {307, 308, 309, 310, 311, 312, 313, 314, 315}, {316, 317, 318, 319, 320, 321, 322, 323, 324}, {325, 326, 327, 328, 329, 330, 331, 332, 333}, {334, 335, 336, 337, 338, 339, 340, 341, 342}, {343, 344, 345, 346, 347, 348, 349, 350, 351}, {352, 353, 354, 355, 356, 357, 358, 359, 360}, {361, 362, 363, 364, 365, 366, 367, 368, 369}, {370, 371, 372, 373, 374, 375, 376, 377, 378}, {379, 380, 381, 382, 383, 384, 385, 386, 387}, {388, 389, 390, 391, 392, 393, 394, 395, 396}, {397, 398, 399, 400, 401, 402, 403, 404, 405}, {406, 407, 408, 409, 410, 411, 412, 413, 414}, {415, 416, 417, 418, 419, 420, 421, 422, 423}, {424, 425, 426, 427, 428, 429, 430, 431, 432}, {433, 434, 435, 436, 437, 438, 439, 440, 441}, {442, 443, 444, 445, 446, 447, 448, 449, 450}];
succ =  [{17, 14, 12, 11, 10, 7, 6}, {16, 15, 14, 13, 12, 11, 9}, {17, 16, 15, 14, 13, 11, 9}, {17, 15, 12, 11, 10, 9}, {24, 17, 16, 11, 9, 7}, {24, 20, 16, 15, 9}, {19, 18, 15, 13}, {24, 23, 18, 15}, {23, 21, 19, 18}, {23, 22, 19, 16}, {23, 21, 20}, {24, 23, 20}, {23, 20}, {24, 23, 19}, {22, 21}, {32, 26, 21}, {32, 31, 26, 23}, {29, 25, 22}, {32, 31, 29, 28, 25}, {28, 22}, {31, 29, 28, 25}, {32, 31, 27, 26}, {29, 25}, {35, 34, 27}, {35, 27}, {41, 39, 37, 36, 35, 34}, {39, 33, 30}, {39, 37, 36, 35, 34}, {41, 38, 37, 35}, {40, 37, 36}, {40, 37, 36}, {40, 37, 36}, {50, 42, 41, 40, 38}, {50, 42, 40, 38}, {50, 48, 43, 42, 40}, {42, 38}, {50, 48, 47, 46, 45}, {48, 45, 43}, {47, 45, 42}, {47, 45, 44}, {46, 45, 44}, {49, 44}, {46, 44}, {}, {}, {}, {}, {}, {}, {}];
n_opt = 450;
dur = [1, 10, 13, 16, 18, 19, 21, 24, 25, 4, 13, 14, 15, 20, 21, 22, 27, 29, 3, 5, 14, 17, 21, 26, 27, 28, 30, 5, 9, 11, 15, 16, 18, 19, 21, 22, 10, 11, 12, 14, 17, 19, 20, 21, 30, 2, 4, 7, 15, 16, 17, 23, 28, 29, 5, 10, 11, 12, 16, 17, 20, 21, 29, 1, 2, 3, 9, 16, 17, 25, 26, 30, 3, 7, 19, 20, 21, 23, 25, 26, 27, 2, 5, 6, 7, 14, 19, 23, 28, 29, 7, 14, 19, 20, 21, 23, 24, 26, 27, 3, 7, 8, 10, 11, 12, 14, 16, 27, 1, 3, 11, 17, 18, 22, 23, 24, 30, 2, 3, 4, 5, 6, 9, 12, 14, 25, 5, 7, 8, 9, 11, 14, 21, 24, 29, 2, 3, 4, 12, 17, 18, 19, 20, 22, 6, 9, 15, 18, 21, 22, 24, 25, 26, 1, 7, 9, 10, 16, 17, 19, 20, 21, 1, 2, 4, 6, 13, 18, 20, 21, 29, 5, 7, 8, 13, 16, 24, 25, 28, 30, 1, 4, 6, 9, 10, 11, 15, 17, 26, 2, 5, 12, 13, 16, 18, 19, 22, 24, 2, 5, 6, 16, 17, 23, 24, 28, 29, 10, 16, 17, 20, 21, 24, 27, 28, 29, 2, 4, 8, 16, 21, 22, 25, 27, 28, 1, 2, 5, 11, 12, 20, 22, 24, 26, 1, 5, 6, 11, 15, 17, 19, 20, 24, 3, 7, 14, 18, 21, 24, 25, 26, 27, 9, 11, 12, 15, 19, 20, 21, 22, 30, 5, 6, 7, 8, 9, 11, 14, 15, 17, 5, 6, 12, 22, 24, 26, 27, 28, 30, 4, 5, 6, 7, 11, 18, 22, 27, 30, 3, 4, 11, 12, 17, 24, 25, 26, 27, 2, 3, 4, 7, 9, 10, 14, 15, 22, 1, 6, 9, 12, 13, 18, 20, 26, 27, 4, 9, 10, 15, 16, 17, 18, 20, 27, 1, 3, 7, 11, 19, 20, 24, 27, 29, 3, 6, 8, 9, 15, 16, 21, 25, 27, 5, 6, 7, 8, 15, 19, 23, 24, 25, 1, 3, 4, 6, 9, 13, 21, 25, 28, 3, 6, 9, 14, 17, 21, 24, 26, 29, 11, 15, 17, 20, 21, 25, 27, 28, 29, 3, 4, 6, 7, 19, 20, 24, 25, 28, 4, 6, 10, 21, 22, 23, 24, 25, 26, 3, 12, 13, 18, 19, 20, 23, 24, 30, 1, 2, 3, 6, 8, 11, 21, 22, 30, 4, 16, 17, 18, 19, 21, 25, 26, 28, 5, 6, 7, 9, 10, 16, 17, 18, 22, 2, 6, 7, 8, 9, 13, 21, 26, 30, 4, 12, 13, 16, 21, 22, 27, 28, 29];
rreq = [|29, 28, 27, 25, 24, 23, 22, 19, 19, 19, 19, 19, 19, 19, 18, 18, 18, 18, 29, 28, 27, 26, 25, 24, 22, 22, 21, 5, 4, 4, 4, 3, 3, 3, 2, 2, 19, 18, 16, 13, 12, 10, 9, 6, 5, 27, 24, 24, 19, 16, 16, 12, 9, 7, 8, 6, 5, 5, 4, 4, 2, 2, 1, 28, 27, 23, 22, 18, 18, 15, 12, 10, 21, 21, 16, 14, 12, 10, 6, 4, 2, 16, 14, 13, 9, 8, 6, 4, 2, 1, 16, 16, 15, 15, 14, 13, 13, 13, 12, 25, 22, 21, 21, 20, 18, 16, 16, 14, 12, 11, 10, 9, 8, 8, 8, 7, 6, 16, 13, 12, 11, 11, 9, 7, 6, 6, 22, 22, 22, 22, 21, 21, 21, 21, 21, 17, 16, 15, 14, 13, 10, 9, 9, 8, 27, 26, 25, 25, 24, 24, 24, 23, 23, 17, 16, 16, 15, 14, 14, 14, 12, 12, 24, 24, 20, 18, 14, 14, 9, 8, 6, 27, 27, 27, 27, 27, 27, 27, 27, 27, 29, 27, 27, 25, 24, 23, 23, 22, 21, 14, 14, 14, 14, 13, 13, 13, 12, 12, 23, 22, 19, 18, 15, 12, 12, 10, 8, 18, 17, 16, 14, 13, 13, 12, 10, 9, 29, 27, 23, 19, 17, 16, 11, 10, 6, 16, 13, 12, 12, 9, 8, 7, 4, 3, 17, 16, 15, 15, 15, 14, 14, 13, 13, 11, 11, 11, 11, 11, 11, 11, 11, 11, 8, 7, 7, 6, 6, 5, 5, 3, 3, 25, 24, 21, 15, 14, 11, 10, 7, 2, 28, 26, 25, 23, 21, 21, 18, 16, 15, 18, 18, 17, 17, 15, 15, 14, 13, 13, 13, 12, 10, 9, 8, 8, 6, 5, 5, 23, 23, 21, 20, 20, 19, 18, 16, 15, 19, 19, 19, 19, 18, 18, 18, 18, 18, 25, 22, 19, 14, 11, 11, 7, 5, 2, 9, 9, 9, 9, 9, 8, 8, 8, 8, 8, 6, 6, 6, 5, 4, 4, 2, 2, 11, 10, 9, 8, 6, 5, 4, 2, 1, 15, 13, 12, 11, 9, 8, 5, 5, 3, 28, 26, 25, 22, 21, 21, 19, 18, 17, 29, 29, 29, 29, 29, 28, 28, 28, 28, 17, 15, 14, 14, 12, 11, 11, 9, 9, 6, 6, 6, 6, 6, 5, 5, 5, 5, 18, 15, 14, 14, 13, 12, 10, 9, 8, 26, 26, 23, 20, 17, 14, 13, 9, 6, 9, 8, 8, 7, 6, 6, 6, 5, 5, 30, 29, 28, 27, 27, 26, 25, 24, 24, 9, 9, 8, 8, 7, 7, 7, 6, 6, 28, 26, 24, 22, 22, 20, 20, 17, 16
 |21, 20, 20, 19, 17, 16, 16, 15, 14, 16, 16, 15, 15, 14, 14, 13, 13, 13, 22, 17, 16, 15, 11, 9, 7, 4, 2, 28, 26, 25, 22, 21, 21, 19, 18, 16, 29, 29, 29, 29, 29, 29, 29, 29, 29, 19, 19, 17, 14, 13, 9, 7, 6, 2, 18, 18, 16, 15, 15, 15, 13, 12, 12, 26, 22, 20, 18, 15, 15, 11, 9, 7, 24, 24, 24, 24, 24, 24, 24, 24, 24, 13, 12, 10, 9, 9, 8, 7, 5, 5, 16, 15, 15, 15, 15, 15, 15, 15, 15, 27, 24, 19, 16, 15, 10, 10, 4, 2, 20, 19, 17, 15, 12, 10, 8, 5, 3, 20, 19, 18, 18, 17, 17, 17, 16, 16, 21, 18, 15, 13, 12, 10, 7, 4, 4, 14, 12, 11, 11, 8, 7, 5, 4, 4, 18, 16, 15, 11, 10, 7, 6, 4, 1, 24, 23, 23, 22, 21, 21, 21, 20, 20, 23, 21, 21, 21, 20, 19, 18, 18, 17, 26, 25, 25, 25, 24, 24, 24, 24, 24, 29, 26, 24, 24, 22, 21, 18, 18, 17, 28, 28, 28, 28, 28, 28, 28, 28, 28, 22, 21, 20, 17, 13, 13, 11, 8, 6, 20, 16, 14, 14, 12, 9, 7, 5, 4, 16, 16, 14, 14, 13, 11, 10, 10, 8, 18, 18, 18, 18, 18, 18, 18, 18, 18, 13, 12, 12, 10, 9, 8, 8, 6, 5, 25, 23, 19, 18, 15, 15, 12, 11, 8, 19, 18, 18, 17, 16, 16, 15, 15, 15, 26, 24, 22, 20, 15, 15, 13, 10, 5, 28, 26, 26, 24, 23, 20, 19, 17, 16, 27, 23, 21, 18, 17, 15, 11, 11, 8, 18, 16, 15, 14, 13, 12, 10, 9, 9, 25, 24, 20, 16, 16, 11, 9, 6, 4, 23, 21, 20, 18, 17, 15, 11, 11, 8, 30, 24, 24, 19, 17, 15, 12, 12, 7, 23, 21, 18, 16, 16, 13, 12, 11, 9, 16, 14, 14, 12, 11, 9, 9, 8, 7, 21, 20, 19, 18, 15, 15, 13, 12, 11, 20, 20, 17, 13, 12, 10, 6, 4, 1, 23, 21, 19, 18, 14, 10, 9, 8, 3, 26, 24, 24, 24, 23, 22, 22, 21, 21, 30, 27, 25, 24, 20, 20, 18, 15, 14, 12, 12, 12, 12, 12, 12, 12, 12, 12, 17, 16, 14, 13, 12, 11, 10, 9, 9, 16, 14, 13, 12, 12, 9, 8, 7, 6, 30, 28, 28, 27, 27, 27, 26, 25, 25, 24, 23, 22, 22, 21, 19, 19, 18, 16, 26, 25, 25, 24, 23, 23, 23, 22, 22, 28, 26, 26, 25, 25, 25, 24, 24, 23
 |28, 28, 27, 25, 24, 22, 20, 19, 17, 12, 10, 8, 8, 5, 5, 4, 3, 2, 21, 21, 21, 21, 21, 21, 21, 21, 21, 20, 19, 19, 19, 18, 17, 17, 16, 15, 30, 29, 28, 27, 25, 25, 24, 22, 22, 14, 14, 12, 12, 10, 10, 9, 7, 7, 27, 26, 23, 20, 18, 16, 14, 12, 11, 19, 18, 14, 14, 11, 8, 6, 3, 2, 24, 23, 22, 19, 17, 17, 15, 13, 11, 9, 8, 7, 5, 5, 4, 3, 2, 2, 15, 15, 15, 15, 14, 14, 14, 14, 14, 12, 12, 12, 11, 10, 10, 10, 9, 9, 14, 14, 13, 13, 12, 12, 12, 11, 11, 22, 21, 20, 19, 18, 17, 16, 14, 14, 17, 15, 15, 14, 13, 12, 11, 10, 9, 22, 20, 17, 17, 14, 12, 7, 4, 4, 3, 2, 2, 2, 2, 2, 2, 2, 2, 20, 19, 19, 18, 18, 18, 17, 17, 17, 30, 27, 26, 24, 23, 22, 20, 19, 18, 6, 6, 5, 5, 4, 3, 3, 3, 2, 22, 22, 22, 22, 22, 21, 21, 21, 21, 29, 28, 27, 26, 26, 26, 25, 24, 24, 26, 23, 21, 20, 19, 17, 15, 14, 14, 26, 25, 25, 24, 22, 22, 20, 19, 19, 15, 14, 13, 12, 11, 10, 9, 7, 6, 30, 29, 27, 27, 26, 25, 25, 23, 23, 6, 5, 5, 5, 5, 5, 5, 5, 5, 12, 11, 10, 9, 8, 7, 5, 4, 3, 16, 15, 14, 12, 12, 11, 8, 8, 6, 23, 23, 23, 23, 23, 22, 22, 22, 22, 27, 27, 26, 25, 24, 23, 23, 21, 21, 19, 18, 18, 18, 18, 17, 17, 17, 17, 30, 27, 22, 22, 17, 17, 14, 9, 9, 23, 23, 23, 22, 22, 22, 21, 21, 21, 21, 19, 15, 15, 12, 11, 9, 8, 5, 26, 21, 21, 17, 17, 12, 11, 8, 8, 22, 21, 19, 18, 18, 16, 15, 14, 14, 11, 10, 10, 8, 8, 6, 5, 4, 3, 11, 10, 10, 9, 8, 8, 7, 6, 6, 19, 17, 17, 16, 15, 15, 15, 13, 13, 10, 10, 10, 9, 9, 8, 7, 7, 7, 17, 15, 13, 12, 10, 8, 6, 5, 3, 29, 28, 28, 28, 28, 28, 28, 28, 28, 14, 14, 13, 11, 11, 10, 8, 8, 7, 21, 18, 17, 17, 14, 13, 13, 12, 11, 28, 27, 26, 24, 23, 21, 20, 20, 18, 28, 25, 23, 21, 21, 19, 17, 14, 14, 11, 10, 9, 8, 7, 7, 7, 5, 5, 23, 21, 18, 18, 14, 12, 9, 7, 2, 12, 11, 10, 9, 8, 6, 6, 5, 3
 |17, 16, 15, 13, 10, 8, 6, 4, 4, 30, 28, 24, 22, 20, 18, 17, 14, 13, 28, 28, 27, 25, 25, 23, 23, 21, 21, 3, 3, 3, 3, 3, 3, 3, 3, 3, 17, 15, 12, 11, 8, 8, 4, 4, 1, 15, 13, 12, 11, 10, 8, 5, 3, 2, 7, 7, 7, 7, 6, 6, 6, 6, 6, 8, 6, 6, 5, 4, 4, 3, 2, 2, 7, 7, 7, 6, 6, 6, 5, 5, 5, 27, 26, 26, 24, 23, 22, 20, 19, 19, 12, 10, 10, 10, 9, 8, 8, 7, 6, 21, 20, 20, 20, 20, 19, 19, 19, 19, 3, 2, 2, 2, 1, 1, 1, 1, 1, 24, 22, 22, 22, 21, 20, 20, 18, 18, 17, 16, 16, 16, 15, 15, 14, 14, 13, 7, 6, 6, 4, 4, 3, 3, 2, 1, 15, 14, 14, 14, 13, 13, 13, 13, 13, 18, 17, 16, 16, 16, 15, 15, 14, 14, 7, 6, 5, 5, 5, 4, 4, 3, 3, 25, 22, 22, 21, 20, 18, 17, 16, 14, 27, 23, 22, 18, 17, 14, 12, 9, 6, 14, 12, 11, 10, 10, 9, 8, 8, 7, 7, 7, 6, 6, 5, 4, 4, 4, 3, 29, 28, 28, 28, 28, 27, 27, 27, 27, 25, 25, 24, 22, 21, 19, 17, 17, 15, 22, 20, 20, 18, 18, 17, 16, 16, 15, 23, 23, 23, 23, 23, 22, 22, 22, 22, 24, 24, 20, 17, 16, 15, 13, 8, 6, 8, 8, 8, 7, 7, 7, 6, 6, 6, 4, 4, 3, 3, 3, 2, 2, 1, 1, 23, 20, 19, 16, 15, 12, 12, 10, 8, 18, 17, 16, 16, 14, 12, 12, 11, 9, 4, 4, 4, 4, 4, 4, 4, 4, 4, 19, 16, 15, 13, 12, 11, 9, 7, 6, 14, 14, 14, 14, 14, 14, 14, 14, 14, 26, 24, 23, 22, 20, 19, 16, 15, 14, 25, 24, 22, 22, 21, 21, 20, 19, 18, 15, 15, 15, 14, 14, 14, 13, 13, 13, 28, 27, 26, 25, 24, 23, 22, 22, 21, 19, 19, 17, 13, 11, 9, 8, 7, 5, 14, 13, 13, 11, 10, 10, 9, 8, 7, 15, 14, 14, 14, 14, 14, 14, 14, 14, 14, 12, 12, 11, 10, 8, 7, 5, 5, 29, 28, 28, 27, 26, 26, 26, 25, 25, 21, 21, 21, 21, 21, 21, 21, 21, 21, 29, 27, 26, 26, 24, 23, 23, 22, 21, 18, 16, 16, 15, 14, 14, 12, 11, 11, 19, 18, 18, 18, 18, 18, 18, 18, 18, 30, 27, 27, 26, 25, 24, 23, 21, 20, 23, 23, 20, 16, 13, 12, 8, 8, 6
 |25, 22, 21, 18, 17, 16, 15, 12, 10, 15, 14, 12, 11, 10, 9, 8, 8, 6, 21, 20, 18, 18, 15, 14, 13, 12, 11, 27, 26, 26, 24, 24, 24, 23, 22, 21, 15, 14, 13, 12, 11, 11, 10, 9, 8, 26, 26, 26, 26, 26, 25, 25, 25, 25, 19, 18, 18, 17, 16, 15, 14, 14, 13, 25, 25, 24, 22, 21, 19, 18, 18, 16, 21, 19, 18, 16, 16, 14, 13, 12, 11, 18, 17, 16, 15, 15, 14, 13, 11, 10, 27, 24, 23, 21, 19, 18, 14, 14, 10, 10, 10, 9, 7, 7, 6, 5, 5, 4, 7, 6, 6, 6, 5, 5, 5, 5, 5, 29, 24, 20, 17, 15, 13, 10, 7, 5, 25, 23, 23, 22, 21, 21, 20, 19, 19, 22, 19, 19, 16, 14, 11, 9, 7, 6, 16, 15, 14, 13, 13, 12, 11, 11, 10, 19, 17, 16, 15, 14, 13, 11, 11, 10, 27, 26, 24, 22, 21, 19, 18, 16, 15, 28, 24, 23, 21, 20, 18, 16, 12, 12, 8, 7, 7, 7, 6, 5, 5, 4, 4, 14, 14, 14, 14, 14, 13, 13, 13, 13, 18, 16, 15, 14, 13, 11, 11, 9, 8, 26, 25, 23, 22, 22, 20, 20, 18, 18, 22, 21, 19, 16, 15, 12, 10, 8, 8, 20, 18, 18, 16, 16, 13, 12, 11, 11, 24, 23, 21, 15, 14, 11, 9, 4, 3, 14, 13, 13, 13, 13, 12, 12, 12, 12, 2, 2, 2, 2, 2, 1, 1, 1, 1, 18, 18, 18, 18, 18, 18, 18, 18, 18, 25, 25, 25, 25, 25, 25, 25, 25, 25, 24, 21, 18, 15, 13, 11, 9, 5, 2, 25, 23, 22, 21, 18, 18, 16, 16, 15, 12, 12, 11, 9, 7, 7, 5, 5, 4, 21, 21, 19, 17, 17, 15, 13, 13, 12, 19, 18, 15, 14, 10, 8, 8, 6, 3, 5, 5, 5, 5, 5, 4, 4, 4, 4, 18, 17, 16, 16, 15, 14, 14, 13, 12, 17, 16, 15, 15, 14, 13, 12, 10, 10, 14, 12, 12, 10, 9, 9, 7, 7, 6, 9, 8, 8, 8, 7, 7, 6, 5, 5, 24, 23, 23, 22, 22, 21, 20, 20, 20, 15, 15, 14, 13, 13, 12, 12, 11, 11, 13, 12, 12, 12, 12, 12, 12, 12, 12, 10, 9, 8, 7, 6, 6, 6, 5, 4, 9, 9, 9, 9, 8, 8, 7, 7, 7, 23, 23, 23, 23, 23, 23, 23, 23, 23, 18, 17, 17, 17, 16, 15, 14, 13, 13, 28, 26, 23, 18, 17, 12, 9, 5, 3, 28, 27, 27, 26, 26, 25, 24, 24, 24
 |28, 27, 27, 27, 27, 26, 26, 26, 26, 20, 18, 18, 17, 16, 16, 16, 15, 14, 24, 24, 23, 22, 22, 21, 21, 19, 19, 18, 18, 18, 18, 17, 17, 17, 16, 16, 16, 14, 11, 11, 9, 6, 6, 5, 3, 26, 23, 22, 21, 18, 18, 16, 14, 12, 23, 22, 20, 20, 16, 16, 13, 12, 10, 17, 14, 13, 13, 11, 10, 8, 7, 7, 6, 5, 5, 5, 5, 4, 4, 4, 4, 13, 13, 13, 13, 13, 13, 13, 13, 13, 17, 16, 15, 14, 12, 12, 11, 10, 9, 24, 23, 20, 17, 15, 13, 11, 9, 8, 18, 18, 17, 17, 17, 16, 15, 15, 15, 22, 21, 19, 19, 16, 15, 14, 13, 11, 12, 12, 12, 11, 10, 10, 9, 9, 9, 30, 25, 22, 19, 17, 12, 12, 7, 5, 17, 15, 15, 15, 14, 14, 13, 12, 12, 12, 11, 11, 10, 10, 10, 9, 8, 8, 24, 23, 22, 22, 22, 21, 20, 20, 20, 23, 22, 21, 20, 18, 18, 17, 15, 15, 28, 27, 24, 22, 22, 20, 19, 16, 15, 26, 24, 23, 22, 22, 20, 19, 19, 18, 17, 15, 15, 14, 13, 13, 12, 11, 11, 28, 24, 24, 22, 21, 18, 17, 16, 15, 20, 18, 15, 13, 13, 10, 7, 7, 5, 13, 12, 11, 10, 10, 10, 9, 8, 8, 23, 23, 23, 23, 23, 23, 23, 23, 23, 29, 24, 21, 18, 17, 11, 11, 7, 3, 22, 21, 21, 20, 20, 20, 20, 19, 19, 23, 22, 18, 16, 16, 11, 11, 7, 5, 14, 11, 10, 10, 9, 8, 7, 5, 4, 7, 7, 6, 5, 5, 4, 4, 3, 3, 30, 30, 30, 30, 30, 30, 30, 30, 30, 21, 19, 19, 17, 17, 15, 14, 14, 13, 26, 23, 22, 20, 17, 16, 13, 11, 10, 13, 13, 13, 13, 13, 13, 13, 13, 13, 29, 27, 24, 22, 22, 18, 17, 14, 12, 23, 22, 20, 18, 17, 15, 14, 13, 10, 21, 17, 17, 16, 12, 12, 9, 8, 6, 22, 21, 18, 18, 15, 12, 9, 7, 5, 26, 23, 20, 15, 14, 11, 9, 6, 2, 11, 11, 11, 10, 10, 10, 9, 9, 9, 8, 7, 7, 7, 6, 6, 6, 6, 6, 27, 26, 26, 25, 24, 24, 24, 23, 23, 8, 7, 7, 6, 6, 6, 6, 5, 5, 23, 22, 18, 16, 15, 14, 11, 9, 9, 27, 27, 27, 27, 27, 26, 26, 26, 26, 16, 15, 14, 13, 10, 10, 9, 7, 5, 25, 23, 22, 19, 18, 18, 15, 15, 13, 24, 22, 21, 18, 16, 16, 13, 12, 10
 |12, 11, 11, 9, 9, 9, 7, 7, 6, 17, 14, 12, 12, 10, 9, 6, 5, 4, 22, 22, 22, 22, 22, 21, 21, 21, 21, 27, 24, 22, 21, 16, 16, 13, 9, 8, 13, 13, 12, 12, 11, 10, 10, 9, 9, 20, 19, 16, 15, 11, 9, 7, 7, 5, 10, 9, 8, 7, 6, 6, 5, 4, 3, 22, 19, 18, 15, 14, 12, 10, 10, 8, 5, 4, 4, 4, 3, 3, 2, 2, 2, 26, 22, 20, 18, 15, 14, 11, 8, 6, 27, 27, 26, 25, 24, 23, 21, 21, 20, 6, 6, 6, 5, 5, 5, 5, 4, 4, 29, 29, 29, 29, 29, 29, 29, 29, 29, 20, 17, 17, 16, 14, 13, 12, 11, 9, 28, 28, 27, 27, 27, 26, 25, 25, 25, 24, 22, 21, 20, 20, 19, 17, 16, 16, 17, 15, 15, 13, 13, 11, 11, 10, 9, 12, 12, 11, 9, 8, 8, 7, 6, 5, 27, 27, 27, 27, 26, 26, 26, 26, 26, 15, 13, 12, 12, 10, 10, 9, 8, 7, 8, 7, 6, 5, 4, 4, 3, 1, 1, 22, 19, 19, 17, 15, 13, 12, 10, 9, 9, 9, 9, 8, 8, 8, 8, 7, 7, 24, 22, 22, 21, 20, 20, 18, 18, 17, 25, 24, 24, 22, 22, 19, 19, 17, 17, 6, 5, 4, 4, 4, 3, 2, 2, 2, 22, 18, 17, 16, 12, 10, 6, 6, 3, 17, 16, 15, 13, 10, 9, 8, 7, 5, 23, 23, 22, 22, 22, 21, 20, 20, 20, 20, 20, 18, 18, 17, 16, 14, 13, 13, 2, 1, 1, 1, 1, 1, 1, 1, 1, 30, 27, 24, 23, 20, 18, 15, 15, 11, 23, 23, 22, 22, 21, 21, 20, 20, 20, 19, 19, 18, 16, 16, 16, 14, 14, 13, 23, 23, 22, 22, 21, 20, 20, 19, 19, 21, 21, 21, 21, 21, 21, 21, 21, 21, 13, 10, 10, 9, 6, 6, 5, 4, 2, 27, 22, 20, 18, 16, 12, 8, 8, 3, 12, 11, 11, 10, 10, 9, 9, 8, 8, 18, 18, 17, 17, 16, 16, 15, 15, 15, 28, 28, 25, 23, 22, 21, 18, 15, 15, 11, 9, 8, 6, 5, 4, 3, 3, 1, 29, 28, 24, 24, 21, 18, 18, 16, 13, 21, 19, 16, 16, 14, 12, 9, 9, 6, 21, 20, 18, 16, 16, 14, 13, 11, 9, 16, 13, 12, 12, 9, 9, 7, 6, 4, 28, 25, 23, 19, 14, 13, 10, 5, 1, 18, 18, 18, 17, 17, 16, 15, 15, 15, 18, 16, 15, 13, 9, 7, 5, 3, 3, 3, 2, 2, 2, 1, 1, 1, 1, 1
 |28, 27, 25, 23, 22, 22, 21, 19, 18, 29, 28, 27, 25, 25, 24, 23, 22, 21, 25, 23, 20, 20, 18, 14, 14, 12, 10, 15, 14, 14, 13, 13, 13, 12, 12, 12, 12, 11, 11, 10, 9, 8, 7, 5, 4, 16, 13, 12, 12, 10, 8, 8, 6, 5, 8, 8, 7, 6, 6, 6, 5, 5, 4, 28, 28, 25, 24, 20, 18, 16, 16, 14, 25, 25, 21, 20, 14, 12, 9, 7, 6, 15, 15, 15, 14, 13, 13, 13, 12, 12, 28, 27, 27, 27, 26, 26, 26, 25, 25, 25, 23, 22, 22, 21, 20, 19, 18, 17, 30, 29, 28, 28, 27, 27, 27, 26, 26, 25, 22, 20, 16, 15, 14, 10, 10, 6, 25, 24, 22, 18, 18, 16, 13, 12, 10, 25, 25, 21, 20, 18, 16, 15, 12, 10, 23, 20, 19, 15, 14, 13, 11, 7, 6, 3, 2, 2, 2, 2, 2, 2, 2, 2, 20, 17, 16, 15, 13, 12, 11, 9, 8, 19, 15, 14, 14, 10, 9, 9, 6, 5, 15, 15, 15, 15, 15, 15, 15, 15, 15, 23, 18, 18, 15, 14, 11, 8, 7, 5, 19, 17, 16, 15, 14, 13, 12, 9, 9, 20, 20, 18, 16, 16, 13, 13, 11, 10, 25, 25, 23, 19, 16, 16, 14, 9, 9, 6, 6, 5, 5, 4, 4, 3, 3, 3, 23, 22, 22, 22, 21, 21, 21, 21, 21, 24, 21, 19, 17, 15, 12, 12, 8, 7, 9, 8, 8, 8, 8, 7, 7, 7, 7, 19, 19, 19, 18, 18, 17, 17, 16, 16, 18, 17, 15, 11, 9, 8, 7, 4, 3, 23, 20, 16, 14, 13, 10, 9, 6, 6, 29, 25, 22, 19, 19, 17, 13, 10, 9, 10, 9, 8, 8, 6, 6, 5, 4, 4, 29, 27, 25, 25, 22, 21, 20, 19, 17, 12, 10, 9, 7, 5, 5, 3, 3, 1, 27, 22, 20, 20, 15, 15, 13, 10, 7, 21, 21, 20, 19, 18, 18, 16, 16, 15, 14, 14, 13, 13, 12, 12, 11, 11, 11, 28, 27, 27, 27, 27, 26, 26, 26, 26, 29, 28, 28, 27, 27, 27, 27, 26, 26, 18, 18, 14, 13, 12, 8, 6, 6, 3, 27, 27, 22, 21, 17, 14, 14, 10, 8, 23, 22, 21, 21, 21, 20, 19, 19, 19, 22, 21, 21, 20, 19, 19, 17, 17, 16, 27, 24, 22, 22, 19, 19, 17, 16, 15, 20, 19, 18, 16, 16, 14, 13, 13, 12, 27, 27, 24, 22, 21, 18, 16, 15, 13, 20, 17, 17, 15, 12, 9, 7, 6, 4, 28, 28, 28, 28, 28, 28, 28, 28, 28|];